vectors
  26.567    0.000    0.000 
   0.000   26.567    0.000 
   0.000    0.000   26.567 
cartesian
C1      core      7.90472519      1.78943780      5.37959116 
O2      core      6.82176279      1.39671684      4.83875783 
Cu3     core      5.78154324     -0.00082074      5.78093730 
O2      core      4.83899102     -1.39859603      6.81953841 
C1      core      5.37974798     -1.79094437      7.90244049 
O2      core      6.46397434     -1.40025424      8.44229969 
Cu3     core      7.50177480      0.00077610      7.50304822 
O2      core      6.46127138      1.39613230      8.44684849 
C1      core      5.37870718      1.78846907      7.90484426 
O2      core      4.84132745      1.39963201      6.81914620 
O2      core      8.44188565      1.40236019      6.46615017 
O2      core      8.44513606     -1.39501253      6.46142553 
C1      core      7.90598672     -1.78691162      5.37779792 
O2      core      6.81917581     -1.40083946      4.84008024 
C1      core     18.66320112     -1.78943780      5.37875540 
O2      core     19.74652131     -1.39671684      4.83863908 
Cu3     core     20.78611692      0.00082074      5.78150694 
O2      core     21.72798141      1.39859603      6.82073177 
C1      core     21.18650772      1.79094437      7.90327565 
O2      core     20.10192423      1.40025424      8.44241700 
Cu3     core     19.06474575     -0.00077610      7.50247873 
O2      core     20.10462417     -1.39613230      8.44696758 
C1      core     21.18754693     -1.78846907      7.90568010 
O2      core     21.72564525     -1.39963201      6.82033801 
O2      core     18.12532150     -1.40236019      6.46495858 
O2      core     18.12207422      1.39501253      6.46023179 
C1      core     18.66194079      1.78691162      5.37696132 
O2      core     19.74910741      1.40083946      4.83996320 
C1      core     21.18827045      1.78943780     18.66313642 
O2      core     20.10530804      1.39671684     18.12230309 
Cu3     core     19.06508850     -0.00082074     19.06448255 
O2      core     18.12253628     -1.39859603     20.10308366 
C1      core     18.66329323     -1.79094437     21.18598575 
O2      core     19.74751959     -1.40025424     21.72584495 
Cu3     core     20.78532005      0.00077610     20.78659348 
O2      core     19.74481664      1.39613230     21.73039374 
C1      core     18.66225243      1.78846907     21.18838952 
O2      core     18.12487270      1.39963201     20.10269145 
O2      core     21.72543091      1.40236019     19.74969543 
O2      core     21.72868132     -1.39501253     19.74497079 
C1      core     21.18953197     -1.78691162     18.66134318 
O2      core     20.10272107     -1.40083946     18.12362549 
C1      core      5.37922557     -1.78943781     18.66273080 
O2      core      6.46236166     -1.39671686     18.12224537 
Cu3     core      7.50227849      0.00082073     19.06475893 
O2      core      8.44449703      1.39859603     20.10366276 
C1      core      7.90339224      1.79094438     21.18639107 
O2      core      6.81899252      1.40025425     21.72590196 
Cu3     core      5.78149383     -0.00077610     20.78631717 
O2      core      6.82169401     -1.39613229     21.73045164 
C1      core      7.90443227     -1.78846906     21.18879520 
O2      core      8.44216073     -1.39963201     20.10326982 
O2      core      4.84171611     -1.40236019     19.74911720 
O2      core      4.83846721      1.39501253     19.74439149 
C1      core      5.37796463      1.78691161     18.66093713 
O2      core      6.46494821      1.40083945     18.12356859 
C1      core      5.37983871      7.90497254      1.78943780 
O2      core      4.83879314      6.82211615      1.39671684 
Cu3     core      5.78076872      5.78171197     -0.00082074 
O2      core      6.81918509      4.83895622     -1.39859603 
C1      core      7.90219313      5.37950093     -1.79094437 
O2      core      8.44226481      6.46362147     -1.40025424 
Cu3     core      7.50321675      7.50160599      0.00077610 
O2      core      8.44681308      6.46091762      1.39613230 
C1      core      7.90459670      5.37845966      1.78846907 
O2      core      6.81879334      4.84129272      1.39963201 
O2      core      6.46650297      8.44192004      1.40236019 
O2      core      6.46177897      8.44517137     -1.39501253 
C1      core      5.37804571      7.90623441     -1.78691162 
O2      core      4.84011504      6.81952891     -1.40083946 
C1      core      7.90503674     21.18718753     -1.78943780 
O2      core      8.44494112     20.10376169     -1.39671684 
Cu3     core      7.50186989     19.06435056      0.00082074 
O2      core      6.46246082     18.12268939      1.39859603 
C1      core      5.38002290     18.66437486      1.79094437 
O2      core      4.84109374     19.74906381      1.40025424 
Cu3     core      5.78123489     20.78605838     -0.00077610 
O2      core      4.83654263     19.74636475     -1.39613230 
C1      core      5.37761824     18.66333612     -1.78846907 
O2      core      6.46285504     18.12502548     -1.39963201 
O2      core      6.81893880     21.72527963     -1.40236019 
O2      core      6.82366623     21.72852599      1.39501253 
C1      core      7.90683106     21.18844751      1.78691162 
O2      core      8.44361649     20.10117585      1.40083946 
C1      core     18.66338396     21.18851779      1.78943780 
O2      core     18.12233840     20.10566140      1.39671684 
Cu3     core     19.06431398     19.06525723     -0.00082074 
O2      core     20.10273034     18.12250147     -1.39859603 
C1      core     21.18573839     18.66304619     -1.79094437 
O2      core     21.72581007     19.74716672     -1.40025424 
Cu3     core     20.78676201     20.78515124      0.00077610 
O2      core     21.73035833     19.74446288      1.39613230 
C1      core     21.18814195     18.66200492      1.78846907 
O2      core     20.10233859     18.12483797      1.39963201 
O2      core     19.75004823     21.72546529      1.40236019 
O2      core     19.74532422     21.72871663     -1.39501253 
C1      core     18.66159097     21.18977966     -1.78691162 
O2      core     18.12366030     20.10307417     -1.40083946 
C1      core     21.18785736      7.90436732     -1.78943778 
O2      core     21.72838363      6.82125162     -1.39671684 
Cu3     core     20.78590928      5.78129922      0.00082073 
O2      core     19.74704098      4.83904147      1.39859600 
C1      core     18.66429225      5.38010542      1.79094434 
O2      core     18.12474048      6.46448480      1.40025423 
Cu3     core     19.06428615      7.50201895     -0.00077609 
O2      core     18.12019091      6.46178319     -1.39613231 
C1      core     18.66188819      5.37906537     -1.78846910 
O2      core     19.74743385      4.84137783     -1.39963205 
O2      core     20.10145069      8.44183581     -1.40236016 
O2      core     20.10617625      8.44508483      1.39501257 
C1      core     21.18965096      7.90562827      1.78691164 
O2      core     21.72706049      6.81866496      1.40083946 
C1      core     -1.78835445      7.90524985      5.37858122 
O2      core     -1.39602527      6.82190176      4.83823619 
Cu3     core      0.00065226      5.78125805      5.78122224 
O2      core      1.39758706      4.83831343      6.82059769 
C1      core      1.78986201      5.37922202      7.90345063 
O2      core      1.39956465      6.46383267      8.44282178 
Cu3     core     -0.00060788      7.50206011      7.50276337 
O2      core     -1.39682428      6.46260435      8.44644590 
C1      core     -1.78955208      5.38006764      7.90467000 
O2      core     -1.40063908      4.84212382      6.81927853 
O2      core     -1.40135333      8.44256593      6.46509053 
O2      core      1.39602213      8.44434113      6.46129071 
C1      core      1.78799554      7.90462677      5.37797129 
O2      core      1.40152869      6.81784148      4.84048541 
C1      core     -1.78968468      5.38014699     18.66215978 
O2      core     -1.39760703      4.83943879     19.74541773 
Cu3     core      0.00008258      5.78120068     20.78581113 
O2      core      1.39809302      6.81935413     21.72850777 
C1      core      1.79119075      7.90188360     21.18754902 
O2      core      1.40114384      8.44161620     20.10302809 
Cu3     core     -0.00003779      7.50278489     19.06505171 
O2      core     -1.39524066      8.44763895     20.10480408 
C1      core     -1.78822107      7.90617330     21.18740434 
O2      core     -1.40013392      6.82043531     21.72524528 
O2      core     -1.40185693      6.46633725     18.12479467 
O2      core      1.39551384      6.46013797     18.12247160 
C1      core      1.78666352      5.37646935     18.66208254 
O2      core      1.39994857      4.83928825     19.74893026 
C1      core     -1.78835445     21.18882594     18.66215731 
O2      core     -1.39602525     20.10549105     18.12178583 
Cu3     core      0.00065227     19.06482432     19.06474648 
O2      core      1.39758707     18.12185433     20.10409892 
C1      core      1.78986200     18.66273648     21.18696508 
O2      core      1.39956462     19.74733396     21.72636271 
Cu3     core     -0.00060790     20.78558434     20.78632963 
O2      core     -1.39682431     19.74610553     21.72998676 
C1      core     -1.78955209     18.66358204     21.18818442 
O2      core     -1.40063907     18.12566473     20.10277982 
O2      core     -1.40135335     21.72611549     19.74867974 
O2      core      1.39602211     21.72789081     19.74488000 
C1      core      1.78799554     21.18820290     18.66154741 
O2      core      1.40152871     20.10143074     18.12403498 
C1      core     -1.78919023     21.18882884      7.90374617 
O2      core     -1.39582611     21.72912329      6.82074820 
Cu3     core      0.00155890     20.78588897      5.78127993 
O2      core      1.39909850     19.74626284      4.83950857 
C1      core      1.79069729     18.66332000      5.38072703 
O2      core      1.39936409     18.12399901      6.46498933 
Cu3     core     -0.00151442     19.06430642      7.50203827 
O2      core     -1.39702341     18.12092251      6.46136220 
C1      core     -1.78871638     18.66280154      5.37850223 
O2      core     -1.39912956     19.74812986      4.84091870 
O2      core     -1.40286291     20.10223075      8.44136751 
O2      core      1.39451069     20.10548274      8.44554237 
C1      core      1.78715903     21.18873846      7.90619087 
O2      core      1.40172981     21.72632634      6.81908759 
C1      core      7.90472519     15.07298305     18.66313642 
O2      core      6.82176279     14.68026209     18.12230309 
Cu3     core      5.78154324     13.28272451     19.06448255 
O2      core      4.83899102     11.88494922     20.10308366 
C1      core      5.37974798     11.49260088     21.18598575 
O2      core      6.46397434     11.88329101     21.72584495 
Cu3     core      7.50177480     13.28432135     20.78659348 
O2      core      6.46127138     14.67967755     21.73039374 
C1      core      5.37870718     15.07201432     21.18838952 
O2      core      4.84132745     14.68317726     20.10269145 
O2      core      8.44188565     14.68590544     19.74969543 
O2      core      8.44513606     11.88853272     19.74497079 
C1      core      7.90598672     11.49663363     18.66134318 
O2      core      6.81917581     11.88270579     18.12362549 
C1      core     18.66320112     11.49410745     18.66230065 
O2      core     19.74652131     11.88682841     18.12218433 
Cu3     core     20.78611692     13.28436599     19.06505219 
O2      core     21.72798141     14.68214128     20.10427702 
C1      core     21.18650772     15.07448962     21.18682090 
O2      core     20.10192423     14.68379949     21.72596225 
Cu3     core     19.06474575     13.28276915     20.78602399 
O2      core     20.10462417     11.88741295     21.73051283 
C1      core     21.18754693     11.49507618     21.18922536 
O2      core     21.72564525     11.88391324     20.10388326 
O2      core     18.12532150     11.88118506     19.74850384 
O2      core     18.12207422     14.67855778     19.74377705 
C1      core     18.66194079     15.07045687     18.66050658 
O2      core     19.74910741     14.68438471     18.12350845 
C1      core     21.18827045     15.07298305      5.37959116 
O2      core     20.10530804     14.68026209      4.83875783 
Cu3     core     19.06508850     13.28272451      5.78093730 
O2      core     18.12253628     11.88494922      6.81953841 
C1      core     18.66329323     11.49260088      7.90244049 
O2      core     19.74751959     11.88329101      8.44229969 
Cu3     core     20.78532005     13.28432135      7.50304822 
O2      core     19.74481664     14.67967755      8.44684849 
C1      core     18.66225243     15.07201432      7.90484426 
O2      core     18.12487270     14.68317726      6.81914620 
O2      core     21.72543091     14.68590544      6.46615017 
O2      core     21.72868132     11.88853272      6.46142553 
C1      core     21.18953197     11.49663363      5.37779792 
O2      core     20.10272107     11.88270579      4.84008024 
C1      core      5.37922558     11.49410744      5.37918553 
O2      core      6.46236167     11.88682839      4.83870011 
Cu3     core      7.50227849     13.28436598      5.78121368 
O2      core      8.44449703     14.68214128      6.82011751 
C1      core      7.90339223     15.07448963      7.90284583 
O2      core      6.81899251     14.68379950      8.44235671 
Cu3     core      5.78149382     13.28276915      7.50277191 
O2      core      6.82169400     11.88741296      8.44690639 
C1      core      7.90443226     11.49507619      7.90524995 
O2      core      8.44216073     11.88391324      6.81972457 
O2      core      4.84171611     11.88118506      6.46557193 
O2      core      4.83846722     14.67855778      6.46084623 
C1      core      5.37796464     15.07045686      5.37739186 
O2      core      6.46494822     14.68438470      4.84002333 
C1      core      5.37983871     21.18851779     15.07298305 
O2      core      4.83879314     20.10566140     14.68026209 
Cu3     core      5.78076872     19.06525723     13.28272451 
O2      core      6.81918509     18.12250147     11.88494922 
C1      core      7.90219313     18.66304619     11.49260088 
O2      core      8.44226481     19.74716672     11.88329101 
Cu3     core      7.50321675     20.78515124     13.28432135 
O2      core      8.44681308     19.74446288     14.67967755 
C1      core      7.90459670     18.66200492     15.07201432 
O2      core      6.81879334     18.12483797     14.68317726 
O2      core      6.46650297     21.72546529     14.68590544 
O2      core      6.46177897     21.72871663     11.88853272 
C1      core      5.37804571     21.18977966     11.49663363 
O2      core      4.84011504     20.10307417     11.88270579 
C1      core      7.90503674      7.90364227     11.49410745 
O2      core      8.44494112      6.82021644     11.88682841 
Cu3     core      7.50186989      5.78080530     13.28436599 
O2      core      6.46246082      4.83914414     14.68214128 
C1      core      5.38002290      5.38082960     15.07448962 
O2      core      4.84109374      6.46551855     14.68379949 
Cu3     core      5.78123489      7.50251312     13.28276915 
O2      core      4.83654263      6.46281950     11.88741295 
C1      core      5.37761824      5.37979087     11.49507618 
O2      core      6.46285504      4.84148022     11.88391324 
O2      core      6.81893880      8.44173437     11.88118506 
O2      core      6.82366623      8.44498073     14.67855778 
C1      core      7.90683106      7.90490225     15.07045687 
O2      core      8.44361649      6.81763060     14.68438471 
C1      core     18.66338396      7.90497254     15.07298305 
O2      core     18.12233840      6.82211615     14.68026209 
Cu3     core     19.06431398      5.78171197     13.28272451 
O2      core     20.10273034      4.83895622     11.88494922 
C1      core     21.18573839      5.37950093     11.49260088 
O2      core     21.72581007      6.46362147     11.88329101 
Cu3     core     20.78676201      7.50160599     13.28432135 
O2      core     21.73035833      6.46091762     14.67967755 
C1      core     21.18814195      5.37845966     15.07201432 
O2      core     20.10233859      4.84129272     14.68317726 
O2      core     19.75004823      8.44192004     14.68590544 
O2      core     19.74532422      8.44517137     11.88853272 
C1      core     18.66159097      7.90623441     11.49663363 
O2      core     18.12366030      6.81952891     11.88270579 
C1      core     21.18785737     21.18791257     11.49410747 
O2      core     21.72838363     20.10479686     11.88682841 
Cu3     core     20.78590927     19.06484447     13.28436598 
O2      core     19.74704097     18.12258672     14.68214125 
C1      core     18.66429225     18.66365068     15.07448959 
O2      core     18.12474047     19.74803007     14.68379948 
Cu3     core     19.06428615     20.78556421     13.28276916 
O2      core     18.12019091     19.74532846     11.88741294 
C1      core     18.66188818     18.66261063     11.49507615 
O2      core     19.74743384     18.12492309     11.88391320 
O2      core     20.10145070     21.72538107     11.88118509 
O2      core     20.10617626     21.72863009     14.67855782 
C1      core     21.18965097     21.18917352     15.07045689 
O2      core     21.72706049     20.10221021     14.68438471 
C1      core     11.49519080      7.90524985     18.66212647 
O2      core     11.88751998      6.82190176     18.12178144 
Cu3     core     13.28419751      5.78125805     19.06476749 
O2      core     14.68113231      4.83831343     20.10414294 
C1      core     15.07340726      5.37922202     21.18699588 
O2      core     14.68310990      6.46383267     21.72636703 
Cu3     core     13.28293737      7.50206011     20.78630862 
O2      core     11.88672097      6.46260435     21.72999115 
C1      core     11.49399317      5.38006764     21.18821525 
O2      core     11.88290617      4.84212382     20.10282378 
O2      core     11.88219192      8.44256593     19.74863578 
O2      core     14.67956738      8.44434113     19.74483596 
C1      core     15.07154079      7.90462677     18.66151654 
O2      core     14.68507394      6.81784148     18.12403066 
C1      core     11.49386057      5.38014699      5.37861452 
O2      core     11.88593822      4.83943879      6.46187247 
Cu3     core     13.28362783      5.78120067      7.50226587 
O2      core     14.68163827      6.81935412      8.44496251 
C1      core     15.07473600      7.90188359      7.90400377 
O2      core     14.68468909      8.44161620      6.81948284 
Cu3     core     13.28350746      7.50278489      5.78150646 
O2      core     11.88830459      8.44763895      6.82125883 
C1      core     11.49532418      7.90617329      7.90385909 
O2      core     11.88341133      6.82043529      8.44170003 
O2      core     11.88168832      6.46633726      4.84124941 
O2      core     14.67905909      6.46013798      4.83892634 
C1      core     15.07020877      5.37646936      5.37853728 
O2      core     14.68349382      4.83928825      6.46538499 
C1      core     11.49519080     21.18882593      5.37861204 
O2      core     11.88752000     20.10549104      4.83824057 
Cu3     core     13.28419752     19.06482432      5.78120123 
O2      core     14.68113232     18.12185433      6.82055368 
C1      core     15.07340725     18.66273649      7.90341983 
O2      core     14.68310987     19.74733397      8.44281745 
Cu3     core     13.28293735     20.78558435      7.50278437 
O2      core     11.88672094     19.74610554      8.44644151 
C1      core     11.49399316     18.66358205      7.90463917 
O2      core     11.88290618     18.12566473      6.81923458 
O2      core     11.88219190     21.72611549      6.46513448 
O2      core     14.67956736     21.72789081      6.46133473 
C1      core     15.07154079     21.18820290      5.37800214 
O2      core     14.68507396     20.10143072      4.84048973 
C1      core     11.49435502     21.18882885     21.18729142 
O2      core     11.88771914     21.72912329     20.10429345 
Cu3     core     13.28510415     20.78588897     19.06482518 
O2      core     14.68264375     19.74626283     18.12305383 
C1      core     15.07424254     18.66331999     18.66427229 
O2      core     14.68290934     18.12399901     19.74853459 
Cu3     core     13.28203083     19.06430643     20.78558353 
O2      core     11.88652184     18.12092251     19.74490747 
C1      core     11.49482887     18.66280153     18.66204749 
O2      core     11.88441569     19.74812985     18.12446395 
O2      core     11.88068234     20.10223076     21.72491277 
O2      core     14.67805594     20.10548275     21.72908762 
C1      core     15.07070428     21.18873847     21.18973612 
O2      core     14.68527506     21.72632634     20.10263283 
C1      core      8.28619834      9.99456289      8.28608722 
C1      core      7.71631944      9.42457553      9.42486897 
C1      core      8.28592742      8.28611188      9.99466630 
C1      core      9.42527226      7.71642037      9.42496335 
C1      core      9.99468292      8.28604928      8.28617828 
C1      core      9.42535310      9.42543556      7.71690477 
H4      core      6.81868147      9.87395264      9.87381005 
H4      core      9.87417666      6.81874873      9.87437053 
H4      core      9.87453236      9.87444133      6.81926295 
C1      core     18.28089216     16.57252761      8.28608722 
C1      core     18.85077106     17.14251497      9.42486897 
C1      core     18.28116308     18.28097862      9.99466630 
C1      core     17.14181824     18.85067013      9.42496335 
C1      core     16.57240758     18.28104122      8.28617828 
C1      core     17.14173740     17.14165494      7.71690477 
H4      core     19.74840903     16.69313786      9.87381005 
H4      core     16.69291384     19.74834177      9.87437053 
H4      core     16.69255814     16.69264917      6.81926295 
C1      core     18.28089216      9.99456289     18.28100328 
C1      core     18.85077106      9.42457553     17.14222153 
C1      core     18.28116308      8.28611188     16.57242420 
C1      core     17.14181824      7.71642037     17.14212715 
C1      core     16.57240758      8.28604928     18.28091222 
C1      core     17.14173740      9.42543556     18.85018573 
H4      core     19.74840903      9.87395264     16.69328045 
H4      core     16.69291384      6.81874873     16.69271997 
H4      core     16.69255814      9.87444133     19.74782755 
C1      core      8.28619834     16.57252761     18.28100328 
C1      core      7.71631944     17.14251497     17.14222153 
C1      core      8.28592742     18.28097862     16.57242420 
C1      core      9.42527226     18.85067013     17.14212715 
C1      core      9.99468292     18.28104122     18.28091222 
C1      core      9.42535310     17.14165494     18.85018573 
H4      core      6.81868147     16.69313786     16.69328045 
H4      core      9.87417666     19.74834177     16.69271997 
H4      core      9.87453236     16.69264917     19.74782755 
C1      core      8.28621526      9.99457981     18.28098636 
C1      core      7.71705936      9.42531546     17.14148160 
C1      core      8.28603957      8.28622403     16.57231205 
C1      core      9.42541749      7.71656560     17.14198192 
C1      core      9.99465849      8.28602485     18.28093665 
C1      core      9.42480670      9.42488916     18.85073213 
H4      core      6.81896792      9.87423908     16.69299400 
H4      core      9.87389526      6.81846734     16.69300137 
H4      core      9.87362382      9.87353279     19.74873609 
C1      core     18.28087524     16.57251069     18.28098636 
C1      core     18.85003114     17.14177504     17.14148160 
C1      core     18.28105093     18.28086647     16.57231205 
C1      core     17.14167301     18.85052490     17.14198192 
C1      core     16.57243201     18.28106565     18.28093665 
C1      core     17.14228380     17.14220134     18.85073213 
H4      core     19.74812258     16.69285142     16.69299400 
H4      core     16.69319524     19.74862316     16.69300137 
H4      core     16.69346668     16.69355771     19.74873609 
C1      core      8.28621526     16.57251069      8.28610414 
C1      core      7.71705936     17.14177504      9.42560890 
C1      core      8.28603957     18.28086647      9.99477845 
C1      core      9.42541749     18.85052490      9.42510858 
C1      core      9.99465849     18.28106565      8.28615385 
C1      core      9.42480670     17.14220134      7.71635837 
H4      core      6.81896792     16.69285142      9.87409650 
H4      core      9.87389526     19.74862316      9.87408913 
H4      core      9.87362382     16.69355771      6.81835441 
C1      core     18.28087524      9.99457981      8.28610414 
C1      core     18.85003114      9.42531546      9.42560890 
C1      core     18.28105093      8.28622403      9.99477845 
C1      core     17.14167301      7.71656560      9.42510858 
C1      core     16.57243201      8.28602485      8.28615385 
C1      core     17.14228380      9.42488916      7.71635837 
H4      core     19.74812258      9.87423908      9.87409650 
H4      core     16.69319524      6.81846734      9.87408913 
H4      core     16.69346668      9.87353279      6.81835441 
C1      core      9.99457981     21.56976051     21.56964939 
C1      core      9.42531546     21.00060461     22.70915415 
C1      core      8.28622403     21.56958482     23.27832370 
C1      core      7.71656560     22.70896274     22.70865383 
C1      core      8.28602485     23.27820374     21.56969910 
C1      core      9.42488916     22.70835195     20.99990362 
H4      core      9.87423908     20.10251317     23.15764175 
H4      core      6.81846734     23.15744051     23.15763438 
H4      core      9.87353279     23.15716907     20.10189966 
C1      core     18.28098636      3.28896544     21.56976051 
C1      core     17.14148160      3.85822979     21.00060461 
C1      core     16.57231205      4.99732122     21.56958482 
C1      core     17.14198192      5.56697965     22.70896274 
C1      core     18.28093665      4.99752040     23.27820374 
C1      core     18.85073213      3.85865609     22.70835195 
H4      core     16.69299400      3.40930617     20.10251317 
H4      core     16.69300137      6.46507791     23.15744051 
H4      core     19.74873609      3.41001246     23.15716907 
C1      core     18.28100328     21.56974359      3.28898236 
C1      core     17.14222153     20.99986469      3.85896972 
C1      core     16.57242420     21.56947267      4.99743337 
C1      core     17.14212715     22.70881751      5.56712488 
C1      core     18.28091222     23.27822817      4.99749597 
C1      core     18.85018573     22.70889835      3.85810969 
H4      core     16.69328045     20.10222672      3.40959261 
H4      core     16.69271997     23.15772191      6.46479652 
H4      core     19.74782755     23.15807761      3.40910392 
C1      core      8.28619834      3.28898236      4.99745803 
C1      core      7.71631944      3.85896972      3.85867628 
C1      core      8.28592742      4.99743337      3.28887895 
C1      core      9.42527226      5.56712488      3.85858190 
C1      core      9.99468292      4.99749597      4.99736697 
C1      core      9.42535310      3.85810969      5.56664048 
H4      core      6.81868147      3.40959261      3.40973520 
H4      core      9.87417666      6.46479652      3.40917472 
H4      core      9.87453236      3.40910392      6.46428230 
C1      core      8.28610414     21.56976051      3.28896544 
C1      core      9.42560890     21.00060461      3.85822979 
C1      core      9.99477845     21.56958482      4.99732122 
C1      core      9.42510858     22.70896274      5.56697965 
C1      core      8.28615385     23.27820374      4.99752040 
C1      core      7.71635837     22.70835195      3.85865609 
H4      core      9.87409650     20.10251317      3.40930617 
H4      core      9.87408913     23.15744051      6.46507791 
H4      core      6.81835441     23.15716907      3.41001246 
C1      core     18.28087524      3.28896544      4.99744111 
C1      core     18.85003114      3.85822979      3.85793635 
C1      core     18.28105093      4.99732122      3.28876680 
C1      core     17.14167301      5.56697965      3.85843667 
C1      core     16.57243201      4.99752040      4.99739140 
C1      core     17.14228380      3.85865609      5.56718688 
H4      core     19.74812258      3.40930617      3.40944875 
H4      core     16.69319524      6.46507791      3.40945612 
H4      core     16.69346668      3.41001246      6.46519084 
C1      core      8.28608722      3.28898236     21.56974359 
C1      core      9.42486897      3.85896972     20.99986469 
C1      core      9.99466630      4.99743337     21.56947267 
C1      core      9.42496335      5.56712488     22.70881751 
C1      core      8.28617828      4.99749597     23.27822817 
C1      core      7.71690477      3.85810969     22.70889835 
H4      core      9.87381005      3.40959261     20.10222672 
H4      core      9.87437053      6.46479652     23.15772191 
H4      core      6.81926295      3.40910392     23.15807761 
C1      core     16.57252761     21.56974359     21.56963247 
C1      core     17.14251497     20.99986469     22.70841422 
C1      core     18.28097862     21.56947267     23.27821155 
C1      core     18.85067013     22.70881751     22.70850860 
C1      core     18.28104122     23.27822817     21.56972353 
C1      core     17.14165494     22.70889835     21.00045002 
H4      core     16.69313786     20.10222672     23.15735530 
H4      core     19.74834177     23.15772191     23.15791578 
H4      core     16.69264917     23.15807761     20.10280820 
C1      core     23.27810814      8.28608722     21.56974359 
C1      core     22.70812078      9.42486897     20.99986469 